NPROCS=0
This instance is clustered!
Gurobi Optimizer version 9.0.0 build v9.0.0rc2 (linux64)
Optimize a model with 34 rows, 290 columns and 578 nonzeros
Model fingerprint: 0x1ee9d734
Variable types: 1 continuous, 289 integer (289 binary)
Coefficient statistics:
  Matrix range     [1e+00, 1e+00]
  Objective range  [1e+00, 2e+02]
  Bounds range     [1e+00, 1e+00]
  RHS range        [1e+00, 1e+00]
Presolve removed 2 rows and 48 columns
Presolve time: 0.00s
Presolved: 32 rows, 242 columns, 482 nonzeros
Variable types: 1 continuous, 241 integer (241 binary)

Root relaxation: objective 4.658147e+02, 32 iterations, 0.00 seconds

    Nodes    |    Current Node    |     Objective Bounds      |     Work
 Expl Unexpl |  Obj  Depth IntInf | Incumbent    BestBd   Gap | It/Node Time

     0     0  465.81467    0   20          -  465.81467      -     -    0s
 done with super cut 0
     0     0  488.97694    0   24          -  488.97694      -     -    0s
     0     0  488.97694    0   24          -  488.97694      -     -    0s
     0     2  488.97694    0   24          -  488.97694      -     -    0s
 done with super cut 1
 done with super cut 2
 done with super cut 3
 done with super cut 4
 done with super cut 5
 done with super cut 6
 done with super cut 7
 done with super cut 8
 done with super cut 9
 done with super cut 10
   135   145  552.36989   11   30          -  531.18877      -   5.5   19s
*  285   247              14     730.5267613  531.18877  27.3%   6.0   19s
H  328   271                     627.2341101  531.18877  15.3%   5.9   19s

Cutting planes:
  Gomory: 1
  Inf proof: 5
  Lazy constraints: 93

Explored 1190 nodes (8566 simplex iterations) in 19.31 seconds
Thread count was 12 (of 12 available processors)

Solution count 2: 627.234 730.527 

Optimal solution found (tolerance 1.00e-04)
Best objective 6.272341101100e+02, best bound 6.272341101100e+02, gap 0.0000%

User-callback calls 2630, time in user-callback 19.15 sec
/projects/academic/josewalt/caigao/RRARP_BD/BendersDecomp/ret/model_outs/n_15_m_4_algo_4.out
 =====>>>>> Solution is written to file in <../ret/model_outs> !!!
===>> All Done!
